# Data for pyomo

set c := c1 c2 c3 c4;

set h := h1 h2 h3 h4;

set j := j1 j2;

set m := 
m1 
m2 
m3 
m4 
m5 
m6
;

set p :=
p1
p2
p3
p4
p5
p6
p7
p8
p9
p10
p11
p12
p13
p14
p15
p16
p17
p18
p19
p20
p21
p22
p23
p24
p25
p26
p27
p28
p29
p30
p31
p32
p33
p34
p35
p36
p37
p38
p39
p40
p41
p42
p43
p44
p45
p46
p47
p48
p49
p50
p51
p52
p53
p54
p55
p56
p57
p58
p59
p60
p61
p62
p63
p64
p65
p66
p67
p68
p69
p70
p71
p72
p73
p74
p75
p76
p77
p78
p79
p80
p81
p82
p83
p84
p85
p86
p87
p88
p89
p90
p91
p92
p93
p94
p95
p96
p97
p98
p99
p100
;

param CIM :=
m1 2216.13
m2 16621.00
m3 5540.33
m4 2216.13
m5 16621.00
m6 5540.33
;

param FCAP :=
m1 4
m2 31
m3 10
m4 4
m5 31
m6 10
;

param TT1 :=
j1 1
j2 2
;

param TT3 :=
j1 1
j2 2
;


param U1 :=
c1 m1 j1 1040
c1 m2 j1 2600
c1 m3 j1 2600
c1 m4 j1 2900
c1 m5 j1 3500
c1 m6 j1 3500
c2 m1 j1 2600
c2 m2 j1 200
c2 m3 j1 2600
c2 m4 j1 2900
c2 m5 j1 3500
c2 m6 j1 3500
c3 m1 j1 1840
c3 m2 j1 2000
c3 m3 j1 2900
c3 m4 j1 2900
c3 m5 j1 3500
c3 m6 j1 3500
c4 m1 j1 1640
c4 m2 j1 1820
c4 m3 j1 2900
c4 m4 j1 2900
c4 m5 j1 3500
c4 m6 j1 3500
c1 m1 j2 520
c1 m2 j2 520
c1 m3 j2 520
c1 m4 j2 936
c1 m5 j2 1053
c1 m6 j2 1053
c2 m1 j2 520
c2 m2 j2 100
c2 m3 j2 520
c2 m4 j2 936
c2 m5 j2 1053
c2 m6 j2 1053
c3 m1 j2 520
c3 m2 j2 520
c3 m3 j2 936
c3 m4 j2 936
c3 m5 j2 1053
c3 m6 j2 1053
c4 m1 j2 520
c4 m2 j2 520
c4 m3 j2 936
c4 m4 j2 936
c4 m5 j2 1053
c4 m6 j2 1053
;

param U3 :=
m1 h1 j1 1910
m1 h2 j1 1910
m1 h3 j1 2910
m1 h4 j1 1910
m2 h1 j1 2910
m2 h2 j1 400
m2 h3 j1 1910
m2 h4 j1 1910
m3 h1 j1 2910
m3 h2 j1 2910
m3 h3 j1 2910
m3 h4 j1 2910
m4 h1 j1 2910
m4 h2 j1 2910
m4 h3 j1 2910
m4 h4 j1 2910
m5 h1 j1 2910
m5 h2 j1 2910
m5 h3 j1 2910
m5 h4 j1 2910
m6 h1 j1 2910
m6 h2 j1 2910
m6 h3 j1 2910
m6 h4 j1 2910
m1 h1 j2 910
m1 h2 j2 910
m1 h3 j2 910
m1 h4 j2 910
m2 h1 j2 910
m2 h2 j2 300
m2 h3 j2 910
m2 h4 j2 910
m3 h1 j2 1755
m3 h2 j2 1755
m3 h3 j2 1755
m3 h4 j2 1755
m4 h1 j2 1755
m4 h2 j2 1755
m4 h3 j2 1755
m4 h4 j2 1755
m5 h1 j2 1855
m5 h2 j2 1855
m5 h3 j2 1855
m5 h4 j2 1755
m6 h1 j2 1855
m6 h2 j2 1855
m6 h3 j2 1855
m6 h4 j2 1855
;

param INC :=
p1 c4 16 1
p2 c3 43 1
p3 c3 21 1
p4 c4 35 1
p5 c1 62 1
p6 c4 75 1
p7 c3 44 1
p8 c2 57 1
p9 c4 79 1
p10 c4 29 1
p11 c3 71 1
p12 c1 84 1
p13 c2 86 1
p14 c1 11 1
p15 c3 74 1
p16 c2 33 1
p17 c2 37 1
p18 c3 2 1
p19 c4 42 1
p20 c1 25 1
p21 c3 67 1
p22 c4 51 1
p23 c2 76 1
p24 c4 70 1
p25 c1 6 1
p26 c1 84 1
p27 c3 37 1
p28 c4 55 1
p29 c1 12 1
p30 c3 30 1
p31 c1 64 1
p32 c3 11 1
p33 c1 84 1
p34 c3 53 1
p35 c4 68 1
p36 c3 79 1
p37 c1 35 1
p38 c3 42 1
p39 c4 28 1
p40 c1 54 1
p41 c4 39 1
p42 c2 34 1
p43 c1 13 1
p44 c4 73 1
p45 c1 48 1
p46 c1 59 1
p47 c3 6 1
p48 c1 51 1
p49 c4 23 1
p50 c4 5 1
p51 c1 12 1
p52 c4 39 1
p53 c4 52 1
p54 c2 13 1
p55 c3 8 1
p56 c1 40 1
p57 c3 49 1
p58 c3 19 1
p59 c2 23 1
p60 c1 40 1
p61 c4 7 1
p62 c1 62 1
p63 c1 31 1
p64 c3 74 1
p65 c1 73 1
p66 c1 40 1
p67 c2 66 1
p68 c2 67 1
p69 c1 11 1
p70 c1 65 1
p71 c2 75 1
p72 c4 1 1
p73 c3 66 1
p74 c2 79 1
p75 c4 66 1
p76 c1 55 1
p77 c3 53 1
p78 c1 13 1
p79 c3 3 1
p80 c3 88 1
p81 c3 72 1
p82 c2 44 1
p83 c2 2 1
p84 c2 38 1
p85 c1 8 1
p86 c3 48 1
p87 c1 6 1
p88 c1 77 1
p89 c2 47 1
p90 c4 82 1
p91 c4 49 1
p92 c4 48 1
p93 c4 59 1
p94 c1 54 1
p95 c4 79 1
p96 c3 26 1
p97 c1 90 1
p98 c4 44 1
p99 c3 24 1
p100 c1 17 1
;

param FMAX := 1 ;
param FMIN := 0 ;
param TAD := 0 ;
param TLS := 1 ;
